Route #1: 2 46 54 5 41 6 20
Route #2: 10 38 3
Route #3: 29 36 21 27 56 8 53 40
Route #4: 15 30 37 45 59 49
Route #5: 34 1 16 48 18 35 47
Route #6: 12 22 43 4 26 32 42 33
Route #7: 17 31 52 57 11 60 28
Route #8: 19 24 25 58 9 51
Route #9: 14 7 23 55
Route #10: 39 44 13 50
Cost 1106.41946322473